# Solution for model r5_t18_m1_6
# Finished Task: 17 / 18
# Makespan: 605.0, Total Distance: 394.0, Total Time: 25.5314
# R O S F
0 0 10 0.0 0.0
1 1 22 50.0 50.0
2 2 12 65.0 65.0
3 3 5 106.0 106.0
4 4 17 11.0 11.0
5 3 14 155.0 178.0
6 -1 -1 576.0 605.0
7 4 -1 555.0 582.0
8 3 13 267.0 294.0
9 3 -1 584.0 605.0
10 0 20 456.0 481.0
11 1 -1 456.0 482.0
12 2 16 401.0 429.0
13 3 18 440.0 466.0
14 3 8 191.0 229.0
15 3 9 514.0 549.0
16 2 21 548.0 576.0
17 4 19 376.0 406.0
18 3 15 478.0 504.0
19 4 7 429.0 456.0
20 0 -1 572.0 604.0
21 2 -1 583.0 605.0
22 1 11 358.0 384.0
